(set-logic HORN)

(declare-datatypes ((listOfInt 0)) (((conslistOfInt  (headlistOfInt Int) (taillistOfInt listOfInt)) (nillistOfInt ))))

(declare-fun |adt_new1| ( listOfInt listOfInt Bool ) Bool)
(declare-fun |rotate| ( Int listOfInt listOfInt ) Bool)
(declare-fun |append| ( listOfInt listOfInt listOfInt ) Bool)
(declare-fun |len| ( listOfInt Int ) Bool)
(declare-fun |ff| ( ) Bool)

(assert
  (forall ( (A listOfInt) (v_1 listOfInt) (v_2 listOfInt) ) 
    (=>
      (and
        (and true (= v_1 nillistOfInt) (= v_2 A))
      )
      (append v_1 A v_2)
    )
  )
)
(assert
  (forall ( (A listOfInt) (B listOfInt) (C Int) (D listOfInt) (E listOfInt) (F listOfInt) ) 
    (=>
      (and
        (append D E F)
        (and (= B (conslistOfInt C D)) (= A (conslistOfInt C F)))
      )
      (append B E A)
    )
  )
)
(assert
  (forall ( (A listOfInt) (B Int) (C listOfInt) (D Bool) (v_4 listOfInt) ) 
    (=>
      (and
        (and (not D) (= A (conslistOfInt B C)) (= v_4 nillistOfInt))
      )
      (adt_new1 v_4 A D)
    )
  )
)
(assert
  (forall ( (A listOfInt) (B Int) (C listOfInt) (D Bool) (v_4 listOfInt) ) 
    (=>
      (and
        (and (not D) (= A (conslistOfInt B C)) (= v_4 nillistOfInt))
      )
      (adt_new1 A v_4 D)
    )
  )
)
(assert
  (forall ( (A Bool) (v_1 listOfInt) (v_2 listOfInt) ) 
    (=>
      (and
        (and (= A true) (= v_1 nillistOfInt) (= v_2 nillistOfInt))
      )
      (adt_new1 v_1 v_2 A)
    )
  )
)
(assert
  (forall ( (A listOfInt) (B listOfInt) (C Int) (D listOfInt) (E Int) (F listOfInt) (G Bool) ) 
    (=>
      (and
        (and (= B (conslistOfInt C D))
     (>= (+ E (* (- 1) C)) 1)
     (not G)
     (= A (conslistOfInt E F)))
      )
      (adt_new1 B A G)
    )
  )
)
(assert
  (forall ( (A listOfInt) (B listOfInt) (C Int) (D listOfInt) (E Int) (F listOfInt) (G Bool) ) 
    (=>
      (and
        (and (= B (conslistOfInt C D))
     (<= (+ E (* (- 1) C)) (- 1))
     (not G)
     (= A (conslistOfInt E F)))
      )
      (adt_new1 B A G)
    )
  )
)
(assert
  (forall ( (A listOfInt) (B listOfInt) (C Int) (D listOfInt) (E listOfInt) (F Bool) ) 
    (=>
      (and
        (adt_new1 D E F)
        (and (= B (conslistOfInt C D)) (= A (conslistOfInt C E)))
      )
      (adt_new1 B A F)
    )
  )
)
(assert
  (forall ( (A Int) (B listOfInt) (v_2 listOfInt) ) 
    (=>
      (and
        (and (= A 0) (= v_2 B))
      )
      (rotate A B v_2)
    )
  )
)
(assert
  (forall ( (A Int) (B Int) (v_2 listOfInt) (v_3 listOfInt) ) 
    (=>
      (and
        (and (>= B 0) (= A (+ 1 B)) (= v_2 nillistOfInt) (= v_3 nillistOfInt))
      )
      (rotate A v_2 v_3)
    )
  )
)
(assert
  (forall ( (A listOfInt) (B listOfInt) (C Int) (D Int) (E listOfInt) (F listOfInt) (G Int) (H listOfInt) ) 
    (=>
      (and
        (rotate G H F)
        (append E A H)
        (and (= B (conslistOfInt D E))
     (= C (+ 1 G))
     (>= G 0)
     (= A (conslistOfInt D nillistOfInt)))
      )
      (rotate C B F)
    )
  )
)
(assert
  (forall ( (A Int) (v_1 listOfInt) ) 
    (=>
      (and
        (and (= A 0) (= v_1 nillistOfInt))
      )
      (len v_1 A)
    )
  )
)
(assert
  (forall ( (A listOfInt) (B Int) (C listOfInt) (D Int) (E Int) ) 
    (=>
      (and
        (len C E)
        (and (= D (+ 1 E)) (= A (conslistOfInt B C)))
      )
      (len A D)
    )
  )
)
(assert
  (forall ( (A Bool) (B listOfInt) (C Int) (D listOfInt) ) 
    (=>
      (and
        (adt_new1 D B A)
        (len B C)
        (rotate C B D)
        (not A)
      )
      ff
    )
  )
)
(assert
  (forall ( (CHC_COMP_UNUSED Bool) ) 
    (=>
      (and
        ff
        true
      )
      false
    )
  )
)

(check-sat)
(exit)
